#LAMMPS Input file
# Title
clear

# ----- condition settings -----

variable    tempm index 2000.0 # K (heat)

variable    temph index 1600.0 # K (cool No.1)

variable    tempc index 1273.0 # K (cool No.2)

variable    pres index 0.001 # 0.0001 MPa (bar units)

variable    fs   index 0.0005 # 0.5 fs
variable    ps   index 20 # 20 ps

# -----other settings -----
variable    nstep equal ${ps}/${fs}
variable    nsteph equal ${ps}/${fs}
variable    nstepc equal ${ps}/${fs}
variable    tdamp equal ${fs}*100
variable    pdamp equal ${fs}*1000

# ----- Structure settings -----
units metal
atom_style atomic
dimension     3
boundary p p p
read_data data
replicate 3 3 3
timestep ${fs}

mass 1 24.305  # Mg
mass 2 1.00794 # H

# ----- Potential settings -----
pair_style adp
pair_coeff * * Mg_H.adp.alloy.txt Mg H

# ----- Relax calculation (0 K) -----
thermo_style    custom step etotal temp lx vol press
thermo          10

fix             f1 all box/relax iso 0.0
minimize        1.0e-10 0.0 1000 100000
unfix           f1

# ----- Output setting -----
dump            d1 all cfg 100 cfg/run.*.cfg mass type xs ys zs id type
dump_modify     d1 element Mg H

# ----- Check equilibriation setting -----
variable        energy equal etotal
variable        temperature equal temp
fix             fout1 all ave/time 1 100 100 v_energy v_temperature file out_energy.txt

# ----- Equilibriation (heat)-----
velocity        all create 10.0 123456
fix             f1 all npt temp 10.0 ${tempm} ${tdamp} iso 0.0 ${pres} ${pdamp}
run             ${nstep} # 20 ps
unfix           f1

# ----- Calculation (cool No.1)-----
fix             f1 all nvt temp ${tempm} ${temph} ${tdamp}
run             ${nsteph} # 20 ps
unfix           f1

# ----- Calculation (cool No.2)-----
fix             f1 all nvt temp ${temph} ${tempc} ${tdamp}
run             ${nstepc} # 20 ps
unfix           f1

# ----- Radial Distribution Function -----
comm_modify cutoff 14
compute         distribution all rdf 480  1 1  2 2  1 2  * * cutoff 12 # Mg-Mg, H-H, Mg-H, Total
fix             f2 all ave/time 1 3000 3000 c_distribution[*] file out_rdf.txt mode vector

# ----- Mean Square Displacement -----
group           Mg type 1
compute         Mgmsd Mg msd
fix             f3 all ave/time 1 1 5 c_Mgmsd[*] file out_Mg_msd.txt
group           H type 2
compute         Hmsd H msd
fix             f4 all ave/time 1 1 5 c_Hmsd[*] file out_H_msd.txt
compute         allmsd all msd
fix             f5 all ave/time 1 1 5 c_allmsd[*] file out_all_msd.txt

fix             f1 all nvt temp ${temp} ${temp} ${tdamp}
run             3000
