#LAMMPS Input file
# Title
clear

# ----- condition settings -----

variable    tempm index 923.0 # K (heat), =< 973 K

variable    pres index 1.0 # 0.1 MPa (bar units)

variable    fs   index 0.0005 # 0.5 fs
variable    ps   index 10 # 10 ps

# -----other settings -----
variable    nstep equal ${ps}/${fs}
variable    nsteph equal ${ps}/${fs}
variable    nstepc equal ${ps}/${fs}
variable    tdamp equal ${fs}*100
variable    pdamp equal ${fs}*1000

#variable    temph index  873.0 # K (cool No.1)
#variable    tempc index  673.0 # K (cool No.2)

# ----- Structure settings -----
units metal
atom_style atomic
dimension     3
boundary p p p
read_data data
replicate 1 1 1
timestep ${fs}

mass 1 63.55    # Cu
mass 2 12.0096  # C

# ----- Potential settings -----
pair_style bop
pair_coeff * * CCu_v2.bop.table Cu C
comm_modify cutoff 12.8

# ----- Relax calculation (0 K) -----
thermo_style    custom step etotal temp lx vol press
thermo          10

fix             f1 all box/relax iso 0.0
minimize        1.0e-10 0.0 1000 100000
unfix           f1

# ----- Output setting -----
dump            d1 all cfg 100 cfg/run.*.cfg mass type xs ys zs id type
dump_modify     d1 element Cu C

# ----- Check equilibriation setting -----
variable        energy equal etotal
variable        temperature equal temp
fix             fout1 all ave/time 1 100 100 v_energy v_temperature file out_energy.txt

# ----- Equilibriation (heat)-----
velocity        all create 10.0 123456
fix             f1 all npt temp 10.0 ${tempm} ${tdamp} iso 0.0 ${pres} ${pdamp}
run             ${nstep}
unfix           f1

# ----- Calculation (cool No.1)-----
#fix             f1 all nvt temp ${tempm} ${temph} ${tdamp}
#fix             f1 all npt temp ${tempm} ${temph} ${tdamp} iso 0.0 ${pres} ${pdamp}
#run             ${nsteph}
#unfix           f1

# ----- Calculation (cool No.2)-----
#fix             f1 all nvt temp ${temph} ${tempc} ${tdamp}
#fix             f1 all npt temp ${temph} ${tempc} ${tdamp} iso 0.0 ${pres} ${pdamp}
#run             ${nstepc}
#unfix           f1

# ----- Radial Distribution Function -----
comm_modify cutoff 14
compute         distribution all rdf 480  1 1  2 2  1 2  * * cutoff 12 # Cu-Cu, C-C, Cu-C, Total
fix             f2 all ave/time 1 3000 3000 c_distribution[*] file out_rdf.txt mode vector

# ----- Mean Square Displacement -----
group           Cu type 1
compute         Cumsd Cu msd
fix             f3 all ave/time 1 1 5 c_Cumsd[*] file out_Cu_msd.txt
group           C type 2
compute         Cmsd C msd
fix             f4 all ave/time 1 1 5 c_Cmsd[*] file out_C_msd.txt
compute         allmsd all msd
fix             f5 all ave/time 1 1 5 c_allmsd[*] file out_all_msd.txt

fix             f1 all nvt temp ${tempm} ${tempm} ${tdamp}
run             3000
