#LAMMPS Input file
# Title
clear

# ----- condition settings -----

variable    tempm index  1273.0 # K (heat)

variable    temph index   873.0 # K (cool No.1)

variable    tempc index   273.0 # K (cool No.2)

variable    pres index 1.0 # 0.1 MPa (bar units)

variable    fs   index 0.0005 # 0.5 fs
variable    ps   index 20 # 20 ps

# -----other settings -----
variable    nstep equal ${ps}/${fs}
variable    nsteph equal ${ps}/${fs}
variable    nstepc equal ${ps}/${fs}
variable    tdamp equal ${fs}*100
variable    pdamp equal ${fs}*1000

# ----- Structure settings -----
units metal
atom_style atomic
dimension     3
boundary p p p
read_data data
replicate 1 1 1
timestep ${fs}

mass 1 24.305  # Mg
mass 2 1.00794 # H

# ----- Potential settings -----
pair_style adp
pair_coeff * * Mg_H.adp.alloy.txt Mg H

# ----- Relax calculation (0 K) -----
thermo_style    custom step etotal temp lx vol press
thermo          10
#minimize        1.0e-10 0.0 1000 100000

# ----- Output setting -----
dump            d1 all cfg 100 cfg/run.*.cfg mass type xs ys zs id type
dump_modify     d1 element Mg H

# ----- Check equilibriation setting -----
variable        energy equal etotal
variable        temperature equal temp
fix             fout1 all ave/time 1 100 100 v_energy v_temperature file out_energy.txt

# ----- Equilibriation (heat)-----
# 1 [eV/Angstrom] = 1.60217657e-9 [N]
# 1 [N] = 101.97 [g] * 9.80665 [m/s^2]
# 9.80665 [m/s^2] = (1/1.60217657e-9)/(101.97/6.02e-23) [(eV/Angstrom)/g]
velocity        all create 10.0 123456
region          mobile block INF INF INF INF 2.4 INF
group           mobile region mobile
fix             g1 mobile gravity 3.6846e-16 vector 0 0 -1
fix             f1 all nvt temp 10.0 ${tempm} ${tdamp} 
run             ${nstep} # 20 ps
unfix           f1

# ----- Calculation (cool No.1)-----
fix             f1 all nvt temp ${tempm} ${temph} ${tdamp}
run             ${nsteph} # 20 ps
unfix           f1

# ----- Calculation (cool No.2)-----
fix             f1 all nvt temp ${temph} ${tempc} ${tdamp}
run             ${nstepc} # 20 ps
